c created by edge2cnf
p cnf 500 3100
-1 -2 0
-1 -3 0
-1 -4 0
-1 -5 0
-2 -3 0
-2 -4 0
-2 -5 0
-3 -4 0
-3 -5 0
-4 -5 0
1 2 3 4 5 0
-6 -7 0
-6 -8 0
-6 -9 0
-6 -10 0
-7 -8 0
-7 -9 0
-7 -10 0
-8 -9 0
-8 -10 0
-9 -10 0
6 7 8 9 10 0
-11 -12 0
-11 -13 0
-11 -14 0
-11 -15 0
-12 -13 0
-12 -14 0
-12 -15 0
-13 -14 0
-13 -15 0
-14 -15 0
11 12 13 14 15 0
-16 -17 0
-16 -18 0
-16 -19 0
-16 -20 0
-17 -18 0
-17 -19 0
-17 -20 0
-18 -19 0
-18 -20 0
-19 -20 0
16 17 18 19 20 0
-21 -22 0
-21 -23 0
-21 -24 0
-21 -25 0
-22 -23 0
-22 -24 0
-22 -25 0
-23 -24 0
-23 -25 0
-24 -25 0
21 22 23 24 25 0
-26 -27 0
-26 -28 0
-26 -29 0
-26 -30 0
-27 -28 0
-27 -29 0
-27 -30 0
-28 -29 0
-28 -30 0
-29 -30 0
26 27 28 29 30 0
-31 -32 0
-31 -33 0
-31 -34 0
-31 -35 0
-32 -33 0
-32 -34 0
-32 -35 0
-33 -34 0
-33 -35 0
-34 -35 0
31 32 33 34 35 0
-36 -37 0
-36 -38 0
-36 -39 0
-36 -40 0
-37 -38 0
-37 -39 0
-37 -40 0
-38 -39 0
-38 -40 0
-39 -40 0
36 37 38 39 40 0
-41 -42 0
-41 -43 0
-41 -44 0
-41 -45 0
-42 -43 0
-42 -44 0
-42 -45 0
-43 -44 0
-43 -45 0
-44 -45 0
41 42 43 44 45 0
-46 -47 0
-46 -48 0
-46 -49 0
-46 -50 0
-47 -48 0
-47 -49 0
-47 -50 0
-48 -49 0
-48 -50 0
-49 -50 0
46 47 48 49 50 0
-51 -52 0
-51 -53 0
-51 -54 0
-51 -55 0
-52 -53 0
-52 -54 0
-52 -55 0
-53 -54 0
-53 -55 0
-54 -55 0
51 52 53 54 55 0
-56 -57 0
-56 -58 0
-56 -59 0
-56 -60 0
-57 -58 0
-57 -59 0
-57 -60 0
-58 -59 0
-58 -60 0
-59 -60 0
56 57 58 59 60 0
-61 -62 0
-61 -63 0
-61 -64 0
-61 -65 0
-62 -63 0
-62 -64 0
-62 -65 0
-63 -64 0
-63 -65 0
-64 -65 0
61 62 63 64 65 0
-66 -67 0
-66 -68 0
-66 -69 0
-66 -70 0
-67 -68 0
-67 -69 0
-67 -70 0
-68 -69 0
-68 -70 0
-69 -70 0
66 67 68 69 70 0
-71 -72 0
-71 -73 0
-71 -74 0
-71 -75 0
-72 -73 0
-72 -74 0
-72 -75 0
-73 -74 0
-73 -75 0
-74 -75 0
71 72 73 74 75 0
-76 -77 0
-76 -78 0
-76 -79 0
-76 -80 0
-77 -78 0
-77 -79 0
-77 -80 0
-78 -79 0
-78 -80 0
-79 -80 0
76 77 78 79 80 0
-81 -82 0
-81 -83 0
-81 -84 0
-81 -85 0
-82 -83 0
-82 -84 0
-82 -85 0
-83 -84 0
-83 -85 0
-84 -85 0
81 82 83 84 85 0
-86 -87 0
-86 -88 0
-86 -89 0
-86 -90 0
-87 -88 0
-87 -89 0
-87 -90 0
-88 -89 0
-88 -90 0
-89 -90 0
86 87 88 89 90 0
-91 -92 0
-91 -93 0
-91 -94 0
-91 -95 0
-92 -93 0
-92 -94 0
-92 -95 0
-93 -94 0
-93 -95 0
-94 -95 0
91 92 93 94 95 0
-96 -97 0
-96 -98 0
-96 -99 0
-96 -100 0
-97 -98 0
-97 -99 0
-97 -100 0
-98 -99 0
-98 -100 0
-99 -100 0
96 97 98 99 100 0
-101 -102 0
-101 -103 0
-101 -104 0
-101 -105 0
-102 -103 0
-102 -104 0
-102 -105 0
-103 -104 0
-103 -105 0
-104 -105 0
101 102 103 104 105 0
-106 -107 0
-106 -108 0
-106 -109 0
-106 -110 0
-107 -108 0
-107 -109 0
-107 -110 0
-108 -109 0
-108 -110 0
-109 -110 0
106 107 108 109 110 0
-111 -112 0
-111 -113 0
-111 -114 0
-111 -115 0
-112 -113 0
-112 -114 0
-112 -115 0
-113 -114 0
-113 -115 0
-114 -115 0
111 112 113 114 115 0
-116 -117 0
-116 -118 0
-116 -119 0
-116 -120 0
-117 -118 0
-117 -119 0
-117 -120 0
-118 -119 0
-118 -120 0
-119 -120 0
116 117 118 119 120 0
-121 -122 0
-121 -123 0
-121 -124 0
-121 -125 0
-122 -123 0
-122 -124 0
-122 -125 0
-123 -124 0
-123 -125 0
-124 -125 0
121 122 123 124 125 0
-126 -127 0
-126 -128 0
-126 -129 0
-126 -130 0
-127 -128 0
-127 -129 0
-127 -130 0
-128 -129 0
-128 -130 0
-129 -130 0
126 127 128 129 130 0
-131 -132 0
-131 -133 0
-131 -134 0
-131 -135 0
-132 -133 0
-132 -134 0
-132 -135 0
-133 -134 0
-133 -135 0
-134 -135 0
131 132 133 134 135 0
-136 -137 0
-136 -138 0
-136 -139 0
-136 -140 0
-137 -138 0
-137 -139 0
-137 -140 0
-138 -139 0
-138 -140 0
-139 -140 0
136 137 138 139 140 0
-141 -142 0
-141 -143 0
-141 -144 0
-141 -145 0
-142 -143 0
-142 -144 0
-142 -145 0
-143 -144 0
-143 -145 0
-144 -145 0
141 142 143 144 145 0
-146 -147 0
-146 -148 0
-146 -149 0
-146 -150 0
-147 -148 0
-147 -149 0
-147 -150 0
-148 -149 0
-148 -150 0
-149 -150 0
146 147 148 149 150 0
-151 -152 0
-151 -153 0
-151 -154 0
-151 -155 0
-152 -153 0
-152 -154 0
-152 -155 0
-153 -154 0
-153 -155 0
-154 -155 0
151 152 153 154 155 0
-156 -157 0
-156 -158 0
-156 -159 0
-156 -160 0
-157 -158 0
-157 -159 0
-157 -160 0
-158 -159 0
-158 -160 0
-159 -160 0
156 157 158 159 160 0
-161 -162 0
-161 -163 0
-161 -164 0
-161 -165 0
-162 -163 0
-162 -164 0
-162 -165 0
-163 -164 0
-163 -165 0
-164 -165 0
161 162 163 164 165 0
-166 -167 0
-166 -168 0
-166 -169 0
-166 -170 0
-167 -168 0
-167 -169 0
-167 -170 0
-168 -169 0
-168 -170 0
-169 -170 0
166 167 168 169 170 0
-171 -172 0
-171 -173 0
-171 -174 0
-171 -175 0
-172 -173 0
-172 -174 0
-172 -175 0
-173 -174 0
-173 -175 0
-174 -175 0
171 172 173 174 175 0
-176 -177 0
-176 -178 0
-176 -179 0
-176 -180 0
-177 -178 0
-177 -179 0
-177 -180 0
-178 -179 0
-178 -180 0
-179 -180 0
176 177 178 179 180 0
-181 -182 0
-181 -183 0
-181 -184 0
-181 -185 0
-182 -183 0
-182 -184 0
-182 -185 0
-183 -184 0
-183 -185 0
-184 -185 0
181 182 183 184 185 0
-186 -187 0
-186 -188 0
-186 -189 0
-186 -190 0
-187 -188 0
-187 -189 0
-187 -190 0
-188 -189 0
-188 -190 0
-189 -190 0
186 187 188 189 190 0
-191 -192 0
-191 -193 0
-191 -194 0
-191 -195 0
-192 -193 0
-192 -194 0
-192 -195 0
-193 -194 0
-193 -195 0
-194 -195 0
191 192 193 194 195 0
-196 -197 0
-196 -198 0
-196 -199 0
-196 -200 0
-197 -198 0
-197 -199 0
-197 -200 0
-198 -199 0
-198 -200 0
-199 -200 0
196 197 198 199 200 0
-201 -202 0
-201 -203 0
-201 -204 0
-201 -205 0
-202 -203 0
-202 -204 0
-202 -205 0
-203 -204 0
-203 -205 0
-204 -205 0
201 202 203 204 205 0
-206 -207 0
-206 -208 0
-206 -209 0
-206 -210 0
-207 -208 0
-207 -209 0
-207 -210 0
-208 -209 0
-208 -210 0
-209 -210 0
206 207 208 209 210 0
-211 -212 0
-211 -213 0
-211 -214 0
-211 -215 0
-212 -213 0
-212 -214 0
-212 -215 0
-213 -214 0
-213 -215 0
-214 -215 0
211 212 213 214 215 0
-216 -217 0
-216 -218 0
-216 -219 0
-216 -220 0
-217 -218 0
-217 -219 0
-217 -220 0
-218 -219 0
-218 -220 0
-219 -220 0
216 217 218 219 220 0
-221 -222 0
-221 -223 0
-221 -224 0
-221 -225 0
-222 -223 0
-222 -224 0
-222 -225 0
-223 -224 0
-223 -225 0
-224 -225 0
221 222 223 224 225 0
-226 -227 0
-226 -228 0
-226 -229 0
-226 -230 0
-227 -228 0
-227 -229 0
-227 -230 0
-228 -229 0
-228 -230 0
-229 -230 0
226 227 228 229 230 0
-231 -232 0
-231 -233 0
-231 -234 0
-231 -235 0
-232 -233 0
-232 -234 0
-232 -235 0
-233 -234 0
-233 -235 0
-234 -235 0
231 232 233 234 235 0
-236 -237 0
-236 -238 0
-236 -239 0
-236 -240 0
-237 -238 0
-237 -239 0
-237 -240 0
-238 -239 0
-238 -240 0
-239 -240 0
236 237 238 239 240 0
-241 -242 0
-241 -243 0
-241 -244 0
-241 -245 0
-242 -243 0
-242 -244 0
-242 -245 0
-243 -244 0
-243 -245 0
-244 -245 0
241 242 243 244 245 0
-246 -247 0
-246 -248 0
-246 -249 0
-246 -250 0
-247 -248 0
-247 -249 0
-247 -250 0
-248 -249 0
-248 -250 0
-249 -250 0
246 247 248 249 250 0
-251 -252 0
-251 -253 0
-251 -254 0
-251 -255 0
-252 -253 0
-252 -254 0
-252 -255 0
-253 -254 0
-253 -255 0
-254 -255 0
251 252 253 254 255 0
-256 -257 0
-256 -258 0
-256 -259 0
-256 -260 0
-257 -258 0
-257 -259 0
-257 -260 0
-258 -259 0
-258 -260 0
-259 -260 0
256 257 258 259 260 0
-261 -262 0
-261 -263 0
-261 -264 0
-261 -265 0
-262 -263 0
-262 -264 0
-262 -265 0
-263 -264 0
-263 -265 0
-264 -265 0
261 262 263 264 265 0
-266 -267 0
-266 -268 0
-266 -269 0
-266 -270 0
-267 -268 0
-267 -269 0
-267 -270 0
-268 -269 0
-268 -270 0
-269 -270 0
266 267 268 269 270 0
-271 -272 0
-271 -273 0
-271 -274 0
-271 -275 0
-272 -273 0
-272 -274 0
-272 -275 0
-273 -274 0
-273 -275 0
-274 -275 0
271 272 273 274 275 0
-276 -277 0
-276 -278 0
-276 -279 0
-276 -280 0
-277 -278 0
-277 -279 0
-277 -280 0
-278 -279 0
-278 -280 0
-279 -280 0
276 277 278 279 280 0
-281 -282 0
-281 -283 0
-281 -284 0
-281 -285 0
-282 -283 0
-282 -284 0
-282 -285 0
-283 -284 0
-283 -285 0
-284 -285 0
281 282 283 284 285 0
-286 -287 0
-286 -288 0
-286 -289 0
-286 -290 0
-287 -288 0
-287 -289 0
-287 -290 0
-288 -289 0
-288 -290 0
-289 -290 0
286 287 288 289 290 0
-291 -292 0
-291 -293 0
-291 -294 0
-291 -295 0
-292 -293 0
-292 -294 0
-292 -295 0
-293 -294 0
-293 -295 0
-294 -295 0
291 292 293 294 295 0
-296 -297 0
-296 -298 0
-296 -299 0
-296 -300 0
-297 -298 0
-297 -299 0
-297 -300 0
-298 -299 0
-298 -300 0
-299 -300 0
296 297 298 299 300 0
-301 -302 0
-301 -303 0
-301 -304 0
-301 -305 0
-302 -303 0
-302 -304 0
-302 -305 0
-303 -304 0
-303 -305 0
-304 -305 0
301 302 303 304 305 0
-306 -307 0
-306 -308 0
-306 -309 0
-306 -310 0
-307 -308 0
-307 -309 0
-307 -310 0
-308 -309 0
-308 -310 0
-309 -310 0
306 307 308 309 310 0
-311 -312 0
-311 -313 0
-311 -314 0
-311 -315 0
-312 -313 0
-312 -314 0
-312 -315 0
-313 -314 0
-313 -315 0
-314 -315 0
311 312 313 314 315 0
-316 -317 0
-316 -318 0
-316 -319 0
-316 -320 0
-317 -318 0
-317 -319 0
-317 -320 0
-318 -319 0
-318 -320 0
-319 -320 0
316 317 318 319 320 0
-321 -322 0
-321 -323 0
-321 -324 0
-321 -325 0
-322 -323 0
-322 -324 0
-322 -325 0
-323 -324 0
-323 -325 0
-324 -325 0
321 322 323 324 325 0
-326 -327 0
-326 -328 0
-326 -329 0
-326 -330 0
-327 -328 0
-327 -329 0
-327 -330 0
-328 -329 0
-328 -330 0
-329 -330 0
326 327 328 329 330 0
-331 -332 0
-331 -333 0
-331 -334 0
-331 -335 0
-332 -333 0
-332 -334 0
-332 -335 0
-333 -334 0
-333 -335 0
-334 -335 0
331 332 333 334 335 0
-336 -337 0
-336 -338 0
-336 -339 0
-336 -340 0
-337 -338 0
-337 -339 0
-337 -340 0
-338 -339 0
-338 -340 0
-339 -340 0
336 337 338 339 340 0
-341 -342 0
-341 -343 0
-341 -344 0
-341 -345 0
-342 -343 0
-342 -344 0
-342 -345 0
-343 -344 0
-343 -345 0
-344 -345 0
341 342 343 344 345 0
-346 -347 0
-346 -348 0
-346 -349 0
-346 -350 0
-347 -348 0
-347 -349 0
-347 -350 0
-348 -349 0
-348 -350 0
-349 -350 0
346 347 348 349 350 0
-351 -352 0
-351 -353 0
-351 -354 0
-351 -355 0
-352 -353 0
-352 -354 0
-352 -355 0
-353 -354 0
-353 -355 0
-354 -355 0
351 352 353 354 355 0
-356 -357 0
-356 -358 0
-356 -359 0
-356 -360 0
-357 -358 0
-357 -359 0
-357 -360 0
-358 -359 0
-358 -360 0
-359 -360 0
356 357 358 359 360 0
-361 -362 0
-361 -363 0
-361 -364 0
-361 -365 0
-362 -363 0
-362 -364 0
-362 -365 0
-363 -364 0
-363 -365 0
-364 -365 0
361 362 363 364 365 0
-366 -367 0
-366 -368 0
-366 -369 0
-366 -370 0
-367 -368 0
-367 -369 0
-367 -370 0
-368 -369 0
-368 -370 0
-369 -370 0
366 367 368 369 370 0
-371 -372 0
-371 -373 0
-371 -374 0
-371 -375 0
-372 -373 0
-372 -374 0
-372 -375 0
-373 -374 0
-373 -375 0
-374 -375 0
371 372 373 374 375 0
-376 -377 0
-376 -378 0
-376 -379 0
-376 -380 0
-377 -378 0
-377 -379 0
-377 -380 0
-378 -379 0
-378 -380 0
-379 -380 0
376 377 378 379 380 0
-381 -382 0
-381 -383 0
-381 -384 0
-381 -385 0
-382 -383 0
-382 -384 0
-382 -385 0
-383 -384 0
-383 -385 0
-384 -385 0
381 382 383 384 385 0
-386 -387 0
-386 -388 0
-386 -389 0
-386 -390 0
-387 -388 0
-387 -389 0
-387 -390 0
-388 -389 0
-388 -390 0
-389 -390 0
386 387 388 389 390 0
-391 -392 0
-391 -393 0
-391 -394 0
-391 -395 0
-392 -393 0
-392 -394 0
-392 -395 0
-393 -394 0
-393 -395 0
-394 -395 0
391 392 393 394 395 0
-396 -397 0
-396 -398 0
-396 -399 0
-396 -400 0
-397 -398 0
-397 -399 0
-397 -400 0
-398 -399 0
-398 -400 0
-399 -400 0
396 397 398 399 400 0
-401 -402 0
-401 -403 0
-401 -404 0
-401 -405 0
-402 -403 0
-402 -404 0
-402 -405 0
-403 -404 0
-403 -405 0
-404 -405 0
401 402 403 404 405 0
-406 -407 0
-406 -408 0
-406 -409 0
-406 -410 0
-407 -408 0
-407 -409 0
-407 -410 0
-408 -409 0
-408 -410 0
-409 -410 0
406 407 408 409 410 0
-411 -412 0
-411 -413 0
-411 -414 0
-411 -415 0
-412 -413 0
-412 -414 0
-412 -415 0
-413 -414 0
-413 -415 0
-414 -415 0
411 412 413 414 415 0
-416 -417 0
-416 -418 0
-416 -419 0
-416 -420 0
-417 -418 0
-417 -419 0
-417 -420 0
-418 -419 0
-418 -420 0
-419 -420 0
416 417 418 419 420 0
-421 -422 0
-421 -423 0
-421 -424 0
-421 -425 0
-422 -423 0
-422 -424 0
-422 -425 0
-423 -424 0
-423 -425 0
-424 -425 0
421 422 423 424 425 0
-426 -427 0
-426 -428 0
-426 -429 0
-426 -430 0
-427 -428 0
-427 -429 0
-427 -430 0
-428 -429 0
-428 -430 0
-429 -430 0
426 427 428 429 430 0
-431 -432 0
-431 -433 0
-431 -434 0
-431 -435 0
-432 -433 0
-432 -434 0
-432 -435 0
-433 -434 0
-433 -435 0
-434 -435 0
431 432 433 434 435 0
-436 -437 0
-436 -438 0
-436 -439 0
-436 -440 0
-437 -438 0
-437 -439 0
-437 -440 0
-438 -439 0
-438 -440 0
-439 -440 0
436 437 438 439 440 0
-441 -442 0
-441 -443 0
-441 -444 0
-441 -445 0
-442 -443 0
-442 -444 0
-442 -445 0
-443 -444 0
-443 -445 0
-444 -445 0
441 442 443 444 445 0
-446 -447 0
-446 -448 0
-446 -449 0
-446 -450 0
-447 -448 0
-447 -449 0
-447 -450 0
-448 -449 0
-448 -450 0
-449 -450 0
446 447 448 449 450 0
-451 -452 0
-451 -453 0
-451 -454 0
-451 -455 0
-452 -453 0
-452 -454 0
-452 -455 0
-453 -454 0
-453 -455 0
-454 -455 0
451 452 453 454 455 0
-456 -457 0
-456 -458 0
-456 -459 0
-456 -460 0
-457 -458 0
-457 -459 0
-457 -460 0
-458 -459 0
-458 -460 0
-459 -460 0
456 457 458 459 460 0
-461 -462 0
-461 -463 0
-461 -464 0
-461 -465 0
-462 -463 0
-462 -464 0
-462 -465 0
-463 -464 0
-463 -465 0
-464 -465 0
461 462 463 464 465 0
-466 -467 0
-466 -468 0
-466 -469 0
-466 -470 0
-467 -468 0
-467 -469 0
-467 -470 0
-468 -469 0
-468 -470 0
-469 -470 0
466 467 468 469 470 0
-471 -472 0
-471 -473 0
-471 -474 0
-471 -475 0
-472 -473 0
-472 -474 0
-472 -475 0
-473 -474 0
-473 -475 0
-474 -475 0
471 472 473 474 475 0
-476 -477 0
-476 -478 0
-476 -479 0
-476 -480 0
-477 -478 0
-477 -479 0
-477 -480 0
-478 -479 0
-478 -480 0
-479 -480 0
476 477 478 479 480 0
-481 -482 0
-481 -483 0
-481 -484 0
-481 -485 0
-482 -483 0
-482 -484 0
-482 -485 0
-483 -484 0
-483 -485 0
-484 -485 0
481 482 483 484 485 0
-486 -487 0
-486 -488 0
-486 -489 0
-486 -490 0
-487 -488 0
-487 -489 0
-487 -490 0
-488 -489 0
-488 -490 0
-489 -490 0
486 487 488 489 490 0
-491 -492 0
-491 -493 0
-491 -494 0
-491 -495 0
-492 -493 0
-492 -494 0
-492 -495 0
-493 -494 0
-493 -495 0
-494 -495 0
491 492 493 494 495 0
-496 -497 0
-496 -498 0
-496 -499 0
-496 -500 0
-497 -498 0
-497 -499 0
-497 -500 0
-498 -499 0
-498 -500 0
-499 -500 0
496 497 498 499 500 0
-1 -6 0
-2 -7 0
-3 -8 0
-4 -9 0
-5 -10 0
-11 -16 0
-12 -17 0
-13 -18 0
-14 -19 0
-15 -20 0
-21 -31 0
-22 -32 0
-23 -33 0
-24 -34 0
-25 -35 0
-76 -81 0
-77 -82 0
-78 -83 0
-79 -84 0
-80 -85 0
-91 -101 0
-92 -102 0
-93 -103 0
-94 -104 0
-95 -105 0
-106 -126 0
-107 -127 0
-108 -128 0
-109 -129 0
-110 -130 0
-131 -151 0
-132 -152 0
-133 -153 0
-134 -154 0
-135 -155 0
-141 -156 0
-142 -157 0
-143 -158 0
-144 -159 0
-145 -160 0
-151 -166 0
-152 -167 0
-153 -168 0
-154 -169 0
-155 -170 0
-176 -196 0
-177 -197 0
-178 -198 0
-179 -199 0
-180 -200 0
-196 -201 0
-197 -202 0
-198 -203 0
-199 -204 0
-200 -205 0
-201 -206 0
-202 -207 0
-203 -208 0
-204 -209 0
-205 -210 0
-231 -241 0
-232 -242 0
-233 -243 0
-234 -244 0
-235 -245 0
-236 -246 0
-237 -247 0
-238 -248 0
-239 -249 0
-240 -250 0
-251 -266 0
-252 -267 0
-253 -268 0
-254 -269 0
-255 -270 0
-266 -276 0
-267 -277 0
-268 -278 0
-269 -279 0
-270 -280 0
-271 -281 0
-272 -282 0
-273 -283 0
-274 -284 0
-275 -285 0
-276 -291 0
-277 -292 0
-278 -293 0
-279 -294 0
-280 -295 0
-281 -301 0
-282 -302 0
-283 -303 0
-284 -304 0
-285 -305 0
-286 -296 0
-287 -297 0
-288 -298 0
-289 -299 0
-290 -300 0
-291 -311 0
-292 -312 0
-293 -313 0
-294 -314 0
-295 -315 0
-296 -301 0
-297 -302 0
-298 -303 0
-299 -304 0
-300 -305 0
-296 -316 0
-297 -317 0
-298 -318 0
-299 -319 0
-300 -320 0
-306 -321 0
-307 -322 0
-308 -323 0
-309 -324 0
-310 -325 0
-311 -316 0
-312 -317 0
-313 -318 0
-314 -319 0
-315 -320 0
-341 -356 0
-342 -357 0
-343 -358 0
-344 -359 0
-345 -360 0
-351 -356 0
-352 -357 0
-353 -358 0
-354 -359 0
-355 -360 0
-356 -366 0
-357 -367 0
-358 -368 0
-359 -369 0
-360 -370 0
-366 -371 0
-367 -372 0
-368 -373 0
-369 -374 0
-370 -375 0
-366 -381 0
-367 -382 0
-368 -383 0
-369 -384 0
-370 -385 0
-401 -406 0
-402 -407 0
-403 -408 0
-404 -409 0
-405 -410 0
-401 -416 0
-402 -417 0
-403 -418 0
-404 -419 0
-405 -420 0
-406 -426 0
-407 -427 0
-408 -428 0
-409 -429 0
-410 -430 0
-436 -441 0
-437 -442 0
-438 -443 0
-439 -444 0
-440 -445 0
-446 -461 0
-447 -462 0
-448 -463 0
-449 -464 0
-450 -465 0
-451 -456 0
-452 -457 0
-453 -458 0
-454 -459 0
-455 -460 0
-451 -471 0
-452 -472 0
-453 -473 0
-454 -474 0
-455 -475 0
-461 -476 0
-462 -477 0
-463 -478 0
-464 -479 0
-465 -480 0
-471 -486 0
-472 -487 0
-473 -488 0
-474 -489 0
-475 -490 0
-491 -496 0
-492 -497 0
-493 -498 0
-494 -499 0
-495 -500 0
-1 -491 0
-2 -492 0
-3 -493 0
-4 -494 0
-5 -495 0
-6 -491 0
-7 -492 0
-8 -493 0
-9 -494 0
-10 -495 0
-6 -486 0
-7 -487 0
-8 -488 0
-9 -489 0
-10 -490 0
-1 -481 0
-2 -482 0
-3 -483 0
-4 -484 0
-5 -485 0
-476 -496 0
-477 -497 0
-478 -498 0
-479 -499 0
-480 -500 0
-476 -491 0
-477 -492 0
-478 -493 0
-479 -494 0
-480 -495 0
-471 -491 0
-472 -492 0
-473 -493 0
-474 -494 0
-475 -495 0
-471 -481 0
-472 -482 0
-473 -483 0
-474 -484 0
-475 -485 0
-471 -476 0
-472 -477 0
-473 -478 0
-474 -479 0
-475 -480 0
-466 -486 0
-467 -487 0
-468 -488 0
-469 -489 0
-470 -490 0
-466 -481 0
-467 -482 0
-468 -483 0
-469 -484 0
-470 -485 0
-466 -471 0
-467 -472 0
-468 -473 0
-469 -474 0
-470 -475 0
-461 -481 0
-462 -482 0
-463 -483 0
-464 -484 0
-465 -485 0
-461 -466 0
-462 -467 0
-463 -468 0
-464 -469 0
-465 -470 0
-456 -466 0
-457 -467 0
-458 -468 0
-459 -469 0
-460 -470 0
-456 -461 0
-457 -462 0
-458 -463 0
-459 -464 0
-460 -465 0
-451 -461 0
-452 -462 0
-453 -463 0
-454 -464 0
-455 -465 0
-446 -451 0
-447 -452 0
-448 -453 0
-449 -454 0
-450 -455 0
-441 -446 0
-442 -447 0
-443 -448 0
-444 -449 0
-445 -450 0
-436 -456 0
-437 -457 0
-438 -458 0
-439 -459 0
-440 -460 0
-436 -446 0
-437 -447 0
-438 -448 0
-439 -449 0
-440 -450 0
-431 -451 0
-432 -452 0
-433 -453 0
-434 -454 0
-435 -455 0
-426 -446 0
-427 -447 0
-428 -448 0
-429 -449 0
-430 -450 0
-426 -436 0
-427 -437 0
-428 -438 0
-429 -439 0
-430 -440 0
-426 -431 0
-427 -432 0
-428 -433 0
-429 -434 0
-430 -435 0
-421 -426 0
-422 -427 0
-423 -428 0
-424 -429 0
-425 -430 0
-416 -436 0
-417 -437 0
-418 -438 0
-419 -439 0
-420 -440 0
-416 -431 0
-417 -432 0
-418 -433 0
-419 -434 0
-420 -435 0
-416 -421 0
-417 -422 0
-418 -423 0
-419 -424 0
-420 -425 0
-411 -421 0
-412 -422 0
-413 -423 0
-414 -424 0
-415 -425 0
-406 -421 0
-407 -422 0
-408 -423 0
-409 -424 0
-410 -425 0
-401 -421 0
-402 -422 0
-403 -423 0
-404 -424 0
-405 -425 0
-401 -411 0
-402 -412 0
-403 -413 0
-404 -414 0
-405 -415 0
-396 -406 0
-397 -407 0
-398 -408 0
-399 -409 0
-400 -410 0
-396 -401 0
-397 -402 0
-398 -403 0
-399 -404 0
-400 -405 0
-391 -411 0
-392 -412 0
-393 -413 0
-394 -414 0
-395 -415 0
-391 -406 0
-392 -407 0
-393 -408 0
-394 -409 0
-395 -410 0
-391 -401 0
-392 -402 0
-393 -403 0
-394 -404 0
-395 -405 0
-386 -406 0
-387 -407 0
-388 -408 0
-389 -409 0
-390 -410 0
-386 -391 0
-387 -392 0
-388 -393 0
-389 -394 0
-390 -395 0
-381 -401 0
-382 -402 0
-383 -403 0
-384 -404 0
-385 -405 0
-381 -396 0
-382 -397 0
-383 -398 0
-384 -399 0
-385 -400 0
-381 -391 0
-382 -392 0
-383 -393 0
-384 -394 0
-385 -395 0
-376 -396 0
-377 -397 0
-378 -398 0
-379 -399 0
-380 -400 0
-376 -391 0
-377 -392 0
-378 -393 0
-379 -394 0
-380 -395 0
-376 -386 0
-377 -387 0
-378 -388 0
-379 -389 0
-380 -390 0
-376 -381 0
-377 -382 0
-378 -383 0
-379 -384 0
-380 -385 0
-371 -391 0
-372 -392 0
-373 -393 0
-374 -394 0
-375 -395 0
-371 -381 0
-372 -382 0
-373 -383 0
-374 -384 0
-375 -385 0
-371 -376 0
-372 -377 0
-373 -378 0
-374 -379 0
-375 -380 0
-366 -386 0
-367 -387 0
-368 -388 0
-369 -389 0
-370 -390 0
-366 -376 0
-367 -377 0
-368 -378 0
-369 -379 0
-370 -380 0
-361 -381 0
-362 -382 0
-363 -383 0
-364 -384 0
-365 -385 0
-361 -376 0
-362 -377 0
-363 -378 0
-364 -379 0
-365 -380 0
-361 -366 0
-362 -367 0
-363 -368 0
-364 -369 0
-365 -370 0
-356 -361 0
-357 -362 0
-358 -363 0
-359 -364 0
-360 -365 0
-351 -371 0
-352 -372 0
-353 -373 0
-354 -374 0
-355 -375 0
-351 -366 0
-352 -367 0
-353 -368 0
-354 -369 0
-355 -370 0
-351 -361 0
-352 -362 0
-353 -363 0
-354 -364 0
-355 -365 0
-346 -356 0
-347 -357 0
-348 -358 0
-349 -359 0
-350 -360 0
-346 -351 0
-347 -352 0
-348 -353 0
-349 -354 0
-350 -355 0
-336 -356 0
-337 -357 0
-338 -358 0
-339 -359 0
-340 -360 0
-336 -346 0
-337 -347 0
-338 -348 0
-339 -349 0
-340 -350 0
-331 -346 0
-332 -347 0
-333 -348 0
-334 -349 0
-335 -350 0
-331 -336 0
-332 -337 0
-333 -338 0
-334 -339 0
-335 -340 0
-326 -346 0
-327 -347 0
-328 -348 0
-329 -349 0
-330 -350 0
-326 -336 0
-327 -337 0
-328 -338 0
-329 -339 0
-330 -340 0
-326 -331 0
-327 -332 0
-328 -333 0
-329 -334 0
-330 -335 0
-321 -331 0
-322 -332 0
-323 -333 0
-324 -334 0
-325 -335 0
-321 -326 0
-322 -327 0
-323 -328 0
-324 -329 0
-325 -330 0
-316 -336 0
-317 -337 0
-318 -338 0
-319 -339 0
-320 -340 0
-316 -331 0
-317 -332 0
-318 -333 0
-319 -334 0
-320 -335 0
-311 -331 0
-312 -332 0
-313 -333 0
-314 -334 0
-315 -335 0
-311 -326 0
-312 -327 0
-313 -328 0
-314 -329 0
-315 -330 0
-306 -316 0
-307 -317 0
-308 -318 0
-309 -319 0
-310 -320 0
-301 -321 0
-302 -322 0
-303 -323 0
-304 -324 0
-305 -325 0
-301 -316 0
-302 -317 0
-303 -318 0
-304 -319 0
-305 -320 0
-291 -306 0
-292 -307 0
-293 -308 0
-294 -309 0
-295 -310 0
-291 -301 0
-292 -302 0
-293 -303 0
-294 -304 0
-295 -305 0
-291 -296 0
-292 -297 0
-293 -298 0
-294 -299 0
-295 -300 0
-281 -286 0
-282 -287 0
-283 -288 0
-284 -289 0
-285 -290 0
-276 -296 0
-277 -297 0
-278 -298 0
-279 -299 0
-280 -300 0
-271 -286 0
-272 -287 0
-273 -288 0
-274 -289 0
-275 -290 0
-271 -276 0
-272 -277 0
-273 -278 0
-274 -279 0
-275 -280 0
-251 -271 0
-252 -272 0
-253 -273 0
-254 -274 0
-255 -275 0
-251 -261 0
-252 -262 0
-253 -263 0
-254 -264 0
-255 -265 0
-246 -266 0
-247 -267 0
-248 -268 0
-249 -269 0
-250 -270 0
-246 -256 0
-247 -257 0
-248 -258 0
-249 -259 0
-250 -260 0
-246 -251 0
-247 -252 0
-248 -253 0
-249 -254 0
-250 -255 0
-241 -261 0
-242 -262 0
-243 -263 0
-244 -264 0
-245 -265 0
-241 -256 0
-242 -257 0
-243 -258 0
-244 -259 0
-245 -260 0
-231 -236 0
-232 -237 0
-233 -238 0
-234 -239 0
-235 -240 0
-226 -231 0
-227 -232 0
-228 -233 0
-229 -234 0
-230 -235 0
-221 -241 0
-222 -242 0
-223 -243 0
-224 -244 0
-225 -245 0
-221 -231 0
-222 -232 0
-223 -233 0
-224 -234 0
-225 -235 0
-221 -226 0
-222 -227 0
-223 -228 0
-224 -229 0
-225 -230 0
-216 -226 0
-217 -227 0
-218 -228 0
-219 -229 0
-220 -230 0
-216 -221 0
-217 -222 0
-218 -223 0
-219 -224 0
-220 -225 0
-211 -231 0
-212 -232 0
-213 -233 0
-214 -234 0
-215 -235 0
-211 -226 0
-212 -227 0
-213 -228 0
-214 -229 0
-215 -230 0
-211 -216 0
-212 -217 0
-213 -218 0
-214 -219 0
-215 -220 0
-206 -226 0
-207 -227 0
-208 -228 0
-209 -229 0
-210 -230 0
-206 -221 0
-207 -222 0
-208 -223 0
-209 -224 0
-210 -225 0
-206 -211 0
-207 -212 0
-208 -213 0
-209 -214 0
-210 -215 0
-201 -221 0
-202 -222 0
-203 -223 0
-204 -224 0
-205 -225 0
-191 -206 0
-192 -207 0
-193 -208 0
-194 -209 0
-195 -210 0
-191 -201 0
-192 -202 0
-193 -203 0
-194 -204 0
-195 -205 0
-191 -196 0
-192 -197 0
-193 -198 0
-194 -199 0
-195 -200 0
-186 -206 0
-187 -207 0
-188 -208 0
-189 -209 0
-190 -210 0
-186 -201 0
-187 -202 0
-188 -203 0
-189 -204 0
-190 -205 0
-186 -196 0
-187 -197 0
-188 -198 0
-189 -199 0
-190 -200 0
-181 -201 0
-182 -202 0
-183 -203 0
-184 -204 0
-185 -205 0
-181 -196 0
-182 -197 0
-183 -198 0
-184 -199 0
-185 -200 0
-181 -186 0
-182 -187 0
-183 -188 0
-184 -189 0
-185 -190 0
-176 -191 0
-177 -192 0
-178 -193 0
-179 -194 0
-180 -195 0
-176 -181 0
-177 -182 0
-178 -183 0
-179 -184 0
-180 -185 0
-171 -191 0
-172 -192 0
-173 -193 0
-174 -194 0
-175 -195 0
-171 -176 0
-172 -177 0
-173 -178 0
-174 -179 0
-175 -180 0
-166 -181 0
-167 -182 0
-168 -183 0
-169 -184 0
-170 -185 0
-161 -181 0
-162 -182 0
-163 -183 0
-164 -184 0
-165 -185 0
-161 -171 0
-162 -172 0
-163 -173 0
-164 -174 0
-165 -175 0
-156 -176 0
-157 -177 0
-158 -178 0
-159 -179 0
-160 -180 0
-151 -171 0
-152 -172 0
-153 -173 0
-154 -174 0
-155 -175 0
-151 -161 0
-152 -162 0
-153 -163 0
-154 -164 0
-155 -165 0
-151 -156 0
-152 -157 0
-153 -158 0
-154 -159 0
-155 -160 0
-146 -166 0
-147 -167 0
-148 -168 0
-149 -169 0
-150 -170 0
-146 -156 0
-147 -157 0
-148 -158 0
-149 -159 0
-150 -160 0
-141 -151 0
-142 -152 0
-143 -153 0
-144 -154 0
-145 -155 0
-141 -146 0
-142 -147 0
-143 -148 0
-144 -149 0
-145 -150 0
-136 -156 0
-137 -157 0
-138 -158 0
-139 -159 0
-140 -160 0
-136 -151 0
-137 -152 0
-138 -153 0
-139 -154 0
-140 -155 0
-136 -146 0
-137 -147 0
-138 -148 0
-139 -149 0
-140 -150 0
-136 -141 0
-137 -142 0
-138 -143 0
-139 -144 0
-140 -145 0
-131 -146 0
-132 -147 0
-133 -148 0
-134 -149 0
-135 -150 0
-126 -131 0
-127 -132 0
-128 -133 0
-129 -134 0
-130 -135 0
-121 -136 0
-122 -137 0
-123 -138 0
-124 -139 0
-125 -140 0
-121 -131 0
-122 -132 0
-123 -133 0
-124 -134 0
-125 -135 0
-121 -126 0
-122 -127 0
-123 -128 0
-124 -129 0
-125 -130 0
-116 -136 0
-117 -137 0
-118 -138 0
-119 -139 0
-120 -140 0
-116 -121 0
-117 -122 0
-118 -123 0
-119 -124 0
-120 -125 0
-111 -131 0
-112 -132 0
-113 -133 0
-114 -134 0
-115 -135 0
-111 -121 0
-112 -122 0
-113 -123 0
-114 -124 0
-115 -125 0
-106 -111 0
-107 -112 0
-108 -113 0
-109 -114 0
-110 -115 0
-101 -111 0
-102 -112 0
-103 -113 0
-104 -114 0
-105 -115 0
-101 -106 0
-102 -107 0
-103 -108 0
-104 -109 0
-105 -110 0
-96 -106 0
-97 -107 0
-98 -108 0
-99 -109 0
-100 -110 0
-86 -106 0
-87 -107 0
-88 -108 0
-89 -109 0
-90 -110 0
-86 -91 0
-87 -92 0
-88 -93 0
-89 -94 0
-90 -95 0
-81 -96 0
-82 -97 0
-83 -98 0
-84 -99 0
-85 -100 0
-81 -86 0
-82 -87 0
-83 -88 0
-84 -89 0
-85 -90 0
-76 -96 0
-77 -97 0
-78 -98 0
-79 -99 0
-80 -100 0
-76 -91 0
-77 -92 0
-78 -93 0
-79 -94 0
-80 -95 0
-76 -86 0
-77 -87 0
-78 -88 0
-79 -89 0
-80 -90 0
-71 -86 0
-72 -87 0
-73 -88 0
-74 -89 0
-75 -90 0
-61 -76 0
-62 -77 0
-63 -78 0
-64 -79 0
-65 -80 0
-61 -66 0
-62 -67 0
-63 -68 0
-64 -69 0
-65 -70 0
-56 -76 0
-57 -77 0
-58 -78 0
-59 -79 0
-60 -80 0
-56 -66 0
-57 -67 0
-58 -68 0
-59 -69 0
-60 -70 0
-56 -61 0
-57 -62 0
-58 -63 0
-59 -64 0
-60 -65 0
-51 -71 0
-52 -72 0
-53 -73 0
-54 -74 0
-55 -75 0
-51 -66 0
-52 -67 0
-53 -68 0
-54 -69 0
-55 -70 0
-46 -61 0
-47 -62 0
-48 -63 0
-49 -64 0
-50 -65 0
-46 -56 0
-47 -57 0
-48 -58 0
-49 -59 0
-50 -60 0
-46 -51 0
-47 -52 0
-48 -53 0
-49 -54 0
-50 -55 0
-41 -56 0
-42 -57 0
-43 -58 0
-44 -59 0
-45 -60 0
-41 -46 0
-42 -47 0
-43 -48 0
-44 -49 0
-45 -50 0
-36 -56 0
-37 -57 0
-38 -58 0
-39 -59 0
-40 -60 0
-36 -51 0
-37 -52 0
-38 -53 0
-39 -54 0
-40 -55 0
-36 -46 0
-37 -47 0
-38 -48 0
-39 -49 0
-40 -50 0
-26 -46 0
-27 -47 0
-28 -48 0
-29 -49 0
-30 -50 0
-26 -36 0
-27 -37 0
-28 -38 0
-29 -39 0
-30 -40 0
-26 -31 0
-27 -32 0
-28 -33 0
-29 -34 0
-30 -35 0
-21 -36 0
-22 -37 0
-23 -38 0
-24 -39 0
-25 -40 0
-11 -31 0
-12 -32 0
-13 -33 0
-14 -34 0
-15 -35 0
-11 -26 0
-12 -27 0
-13 -28 0
-14 -29 0
-15 -30 0
-11 -21 0
-12 -22 0
-13 -23 0
-14 -24 0
-15 -25 0
-6 -21 0
-7 -22 0
-8 -23 0
-9 -24 0
-10 -25 0
-6 -11 0
-7 -12 0
-8 -13 0
-9 -14 0
-10 -15 0
-1 -21 0
-2 -22 0
-3 -23 0
-4 -24 0
-5 -25 0
-1 -16 0
-2 -17 0
-3 -18 0
-4 -19 0
-5 -20 0
-1 -11 0
-2 -12 0
-3 -13 0
-4 -14 0
-5 -15 0
-61 -191 0
-62 -192 0
-63 -193 0
-64 -194 0
-65 -195 0
-211 -381 0
-212 -382 0
-213 -383 0
-214 -384 0
-215 -385 0
-91 -436 0
-92 -437 0
-93 -438 0
-94 -439 0
-95 -440 0
-181 -341 0
-182 -342 0
-183 -343 0
-184 -344 0
-185 -345 0
-226 -436 0
-227 -437 0
-228 -438 0
-229 -439 0
-230 -440 0
-116 -351 0
-117 -352 0
-118 -353 0
-119 -354 0
-120 -355 0
-101 -406 0
-102 -407 0
-103 -408 0
-104 -409 0
-105 -410 0
-126 -326 0
-127 -327 0
-128 -328 0
-129 -329 0
-130 -330 0
-21 -106 0
-22 -107 0
-23 -108 0
-24 -109 0
-25 -110 0
-116 -221 0
-117 -222 0
-118 -223 0
-119 -224 0
-120 -225 0
-136 -406 0
-137 -407 0
-138 -408 0
-139 -409 0
-140 -410 0
-101 -181 0
-102 -182 0
-103 -183 0
-104 -184 0
-105 -185 0
-31 -171 0
-32 -172 0
-33 -173 0
-34 -174 0
-35 -175 0
-176 -371 0
-177 -372 0
-178 -373 0
-179 -374 0
-180 -375 0
-46 -206 0
-47 -207 0
-48 -208 0
-49 -209 0
-50 -210 0
-51 -106 0
-52 -107 0
-53 -108 0
-54 -109 0
-55 -110 0
-316 -471 0
-317 -472 0
-318 -473 0
-319 -474 0
-320 -475 0
-226 -411 0
-227 -412 0
-228 -413 0
-229 -414 0
-230 -415 0
-6 -436 0
-7 -437 0
-8 -438 0
-9 -439 0
-10 -440 0
-36 -401 0
-37 -402 0
-38 -403 0
-39 -404 0
-40 -405 0
-61 -446 0
-62 -447 0
-63 -448 0
-64 -449 0
-65 -450 0
-301 -376 0
-302 -377 0
-303 -378 0
-304 -379 0
-305 -380 0
-291 -406 0
-292 -407 0
-293 -408 0
-294 -409 0
-295 -410 0
-206 -346 0
-207 -347 0
-208 -348 0
-209 -349 0
-210 -350 0
-86 -406 0
-87 -407 0
-88 -408 0
-89 -409 0
-90 -410 0
-41 -426 0
-42 -427 0
-43 -428 0
-44 -429 0
-45 -430 0
-6 -126 0
-7 -127 0
-8 -128 0
-9 -129 0
-10 -130 0
-191 -361 0
-192 -362 0
-193 -363 0
-194 -364 0
-195 -365 0
-356 -476 0
-357 -477 0
-358 -478 0
-359 -479 0
-360 -480 0
-151 -486 0
-152 -487 0
-153 -488 0
-154 -489 0
-155 -490 0
-271 -496 0
-272 -497 0
-273 -498 0
-274 -499 0
-275 -500 0
-51 -311 0
-52 -312 0
-53 -313 0
-54 -314 0
-55 -315 0
-211 -426 0
-212 -427 0
-213 -428 0
-214 -429 0
-215 -430 0
-116 -446 0
-117 -447 0
-118 -448 0
-119 -449 0
-120 -450 0
-156 -476 0
-157 -477 0
-158 -478 0
-159 -479 0
-160 -480 0
-221 -406 0
-222 -407 0
-223 -408 0
-224 -409 0
-225 -410 0
-236 -296 0
-237 -297 0
-238 -298 0
-239 -299 0
-240 -300 0
-36 -71 0
-37 -72 0
-38 -73 0
-39 -74 0
-40 -75 0
-416 -466 0
-417 -467 0
-418 -468 0
-419 -469 0
-420 -470 0
-411 -446 0
-412 -447 0
-413 -448 0
-414 -449 0
-415 -450 0
-41 -411 0
-42 -412 0
-43 -413 0
-44 -414 0
-45 -415 0
-281 -496 0
-282 -497 0
-283 -498 0
-284 -499 0
-285 -500 0
-131 -331 0
-132 -332 0
-133 -333 0
-134 -334 0
-135 -335 0
-401 -481 0
-402 -482 0
-403 -483 0
-404 -484 0
-405 -485 0
-71 -231 0
-72 -232 0
-73 -233 0
-74 -234 0
-75 -235 0
-161 -331 0
-162 -332 0
-163 -333 0
-164 -334 0
-165 -335 0
-306 -456 0
-307 -457 0
-308 -458 0
-309 -459 0
-310 -460 0
-266 -291 0
-267 -292 0
-268 -293 0
-269 -294 0
-270 -295 0
-126 -181 0
-127 -182 0
-128 -183 0
-129 -184 0
-130 -185 0
-141 -266 0
-142 -267 0
-143 -268 0
-144 -269 0
-145 -270 0
-226 -471 0
-227 -472 0
-228 -473 0
-229 -474 0
-230 -475 0
-66 -116 0
-67 -117 0
-68 -118 0
-69 -119 0
-70 -120 0
-261 -446 0
-262 -447 0
-263 -448 0
-264 -449 0
-265 -450 0
-206 -481 0
-207 -482 0
-208 -483 0
-209 -484 0
-210 -485 0
-176 -261 0
-177 -262 0
-178 -263 0
-179 -264 0
-180 -265 0
-111 -381 0
-112 -382 0
-113 -383 0
-114 -384 0
-115 -385 0
-176 -256 0
-177 -257 0
-178 -258 0
-179 -259 0
-180 -260 0
-31 -361 0
-32 -362 0
-33 -363 0
-34 -364 0
-35 -365 0
-386 -486 0
-387 -487 0
-388 -488 0
-389 -489 0
-390 -490 0
-21 -116 0
-22 -117 0
-23 -118 0
-24 -119 0
-25 -120 0
-66 -296 0
-67 -297 0
-68 -298 0
-69 -299 0
-70 -300 0
-26 -166 0
-27 -167 0
-28 -168 0
-29 -169 0
-30 -170 0
-396 -466 0
-397 -467 0
-398 -468 0
-399 -469 0
-400 -470 0
-206 -246 0
-207 -247 0
-208 -248 0
-209 -249 0
-210 -250 0
-156 -331 0
-157 -332 0
-158 -333 0
-159 -334 0
-160 -335 0
-451 -496 0
-452 -497 0
-453 -498 0
-454 -499 0
-455 -500 0
-31 -101 0
-32 -102 0
-33 -103 0
-34 -104 0
-35 -105 0
-266 -446 0
-267 -447 0
-268 -448 0
-269 -449 0
-270 -450 0
-276 -456 0
-277 -457 0
-278 -458 0
-279 -459 0
-280 -460 0
-301 -386 0
-302 -387 0
-303 -388 0
-304 -389 0
-305 -390 0
-11 -196 0
-12 -197 0
-13 -198 0
-14 -199 0
-15 -200 0
-136 -341 0
-137 -342 0
-138 -343 0
-139 -344 0
-140 -345 0
-76 -256 0
-77 -257 0
-78 -258 0
-79 -259 0
-80 -260 0
-116 -166 0
-117 -167 0
-118 -168 0
-119 -169 0
-120 -170 0
-376 -471 0
-377 -472 0
-378 -473 0
-379 -474 0
-380 -475 0
-336 -406 0
-337 -407 0
-338 -408 0
-339 -409 0
-340 -410 0
-196 -361 0
-197 -362 0
-198 -363 0
-199 -364 0
-200 -365 0
-146 -351 0
-147 -352 0
-148 -353 0
-149 -354 0
-150 -355 0
-336 -496 0
-337 -497 0
-338 -498 0
-339 -499 0
-340 -500 0
-291 -491 0
-292 -492 0
-293 -493 0
-294 -494 0
-295 -495 0
-16 -461 0
-17 -462 0
-18 -463 0
-19 -464 0
-20 -465 0
-461 -496 0
-462 -497 0
-463 -498 0
-464 -499 0
-465 -500 0
-41 -151 0
-42 -152 0
-43 -153 0
-44 -154 0
-45 -155 0
-61 -181 0
-62 -182 0
-63 -183 0
-64 -184 0
-65 -185 0
-91 -166 0
-92 -167 0
-93 -168 0
-94 -169 0
-95 -170 0
-51 -141 0
-52 -142 0
-53 -143 0
-54 -144 0
-55 -145 0
-151 -446 0
-152 -447 0
-153 -448 0
-154 -449 0
-155 -450 0
-16 -346 0
-17 -347 0
-18 -348 0
-19 -349 0
-20 -350 0
-116 -476 0
-117 -477 0
-118 -478 0
-119 -479 0
-120 -480 0
-181 -481 0
-182 -482 0
-183 -483 0
-184 -484 0
-185 -485 0
-11 -136 0
-12 -137 0
-13 -138 0
-14 -139 0
-15 -140 0
-61 -101 0
-62 -102 0
-63 -103 0
-64 -104 0
-65 -105 0
-56 -471 0
-57 -472 0
-58 -473 0
-59 -474 0
-60 -475 0
-146 -316 0
-147 -317 0
-148 -318 0
-149 -319 0
-150 -320 0
-186 -301 0
-187 -302 0
-188 -303 0
-189 -304 0
-190 -305 0
-1 -41 0
-2 -42 0
-3 -43 0
-4 -44 0
-5 -45 0
-51 -196 0
-52 -197 0
-53 -198 0
-54 -199 0
-55 -200 0
-101 -231 0
-102 -232 0
-103 -233 0
-104 -234 0
-105 -235 0
-71 -251 0
-72 -252 0
-73 -253 0
-74 -254 0
-75 -255 0
-41 -386 0
-42 -387 0
-43 -388 0
-44 -389 0
-45 -390 0
-76 -461 0
-77 -462 0
-78 -463 0
-79 -464 0
-80 -465 0
-281 -336 0
-282 -337 0
-283 -338 0
-284 -339 0
-285 -340 0
-116 -441 0
-117 -442 0
-118 -443 0
-119 -444 0
-120 -445 0
-1 -356 0
-2 -357 0
-3 -358 0
-4 -359 0
-5 -360 0
-91 -386 0
-92 -387 0
-93 -388 0
-94 -389 0
-95 -390 0
-51 -301 0
-52 -302 0
-53 -303 0
-54 -304 0
-55 -305 0
-36 -106 0
-37 -107 0
-38 -108 0
-39 -109 0
-40 -110 0
-101 -241 0
-102 -242 0
-103 -243 0
-104 -244 0
-105 -245 0
-111 -476 0
-112 -477 0
-113 -478 0
-114 -479 0
-115 -480 0
-251 -291 0
-252 -292 0
-253 -293 0
-254 -294 0
-255 -295 0
-311 -466 0
-312 -467 0
-313 -468 0
-314 -469 0
-315 -470 0
-226 -326 0
-227 -327 0
-228 -328 0
-229 -329 0
-230 -330 0
-91 -476 0
-92 -477 0
-93 -478 0
-94 -479 0
-95 -480 0
-171 -346 0
-172 -347 0
-173 -348 0
-174 -349 0
-175 -350 0
-161 -476 0
-162 -477 0
-163 -478 0
-164 -479 0
-165 -480 0
-146 -456 0
-147 -457 0
-148 -458 0
-149 -459 0
-150 -460 0
-31 -286 0
-32 -287 0
-33 -288 0
-34 -289 0
-35 -290 0
-1 -196 0
-2 -197 0
-3 -198 0
-4 -199 0
-5 -200 0
-16 -156 0
-17 -157 0
-18 -158 0
-19 -159 0
-20 -160 0
-201 -336 0
-202 -337 0
-203 -338 0
-204 -339 0
-205 -340 0
-276 -496 0
-277 -497 0
-278 -498 0
-279 -499 0
-280 -500 0
-411 -491 0
-412 -492 0
-413 -493 0
-414 -494 0
-415 -495 0
-106 -431 0
-107 -432 0
-108 -433 0
-109 -434 0
-110 -435 0
-56 -136 0
-57 -137 0
-58 -138 0
-59 -139 0
-60 -140 0
-256 -451 0
-257 -452 0
-258 -453 0
-259 -454 0
-260 -455 0
-221 -391 0
-222 -392 0
-223 -393 0
-224 -394 0
-225 -395 0
-296 -376 0
-297 -377 0
-298 -378 0
-299 -379 0
-300 -380 0
-16 -486 0
-17 -487 0
-18 -488 0
-19 -489 0
-20 -490 0
-31 -166 0
-32 -167 0
-33 -168 0
-34 -169 0
-35 -170 0
-311 -476 0
-312 -477 0
-313 -478 0
-314 -479 0
-315 -480 0
-171 -196 0
-172 -197 0
-173 -198 0
-174 -199 0
-175 -200 0
-141 -236 0
-142 -237 0
-143 -238 0
-144 -239 0
-145 -240 0
-216 -336 0
-217 -337 0
-218 -338 0
-219 -339 0
-220 -340 0
-341 -431 0
-342 -432 0
-343 -433 0
-344 -434 0
-345 -435 0
-91 -181 0
-92 -182 0
-93 -183 0
-94 -184 0
-95 -185 0
-256 -331 0
-257 -332 0
-258 -333 0
-259 -334 0
-260 -335 0
-196 -461 0
-197 -462 0
-198 -463 0
-199 -464 0
-200 -465 0
-231 -486 0
-232 -487 0
-233 -488 0
-234 -489 0
-235 -490 0
-116 -331 0
-117 -332 0
-118 -333 0
-119 -334 0
-120 -335 0
-21 -366 0
-22 -367 0
-23 -368 0
-24 -369 0
-25 -370 0
-141 -316 0
-142 -317 0
-143 -318 0
-144 -319 0
-145 -320 0
-116 -206 0
-117 -207 0
-118 -208 0
-119 -209 0
-120 -210 0
-36 -181 0
-37 -182 0
-38 -183 0
-39 -184 0
-40 -185 0
-96 -146 0
-97 -147 0
-98 -148 0
-99 -149 0
-100 -150 0
-211 -491 0
-212 -492 0
-213 -493 0
-214 -494 0
-215 -495 0
-196 -391 0
-197 -392 0
-198 -393 0
-199 -394 0
-200 -395 0
-336 -411 0
-337 -412 0
-338 -413 0
-339 -414 0
-340 -415 0
-126 -301 0
-127 -302 0
-128 -303 0
-129 -304 0
-130 -305 0
-51 -296 0
-52 -297 0
-53 -298 0
-54 -299 0
-55 -300 0
-56 -111 0
-57 -112 0
-58 -113 0
-59 -114 0
-60 -115 0
-61 -226 0
-62 -227 0
-63 -228 0
-64 -229 0
-65 -230 0
-346 -471 0
-347 -472 0
-348 -473 0
-349 -474 0
-350 -475 0
-51 -176 0
-52 -177 0
-53 -178 0
-54 -179 0
-55 -180 0
-146 -296 0
-147 -297 0
-148 -298 0
-149 -299 0
-150 -300 0
-176 -246 0
-177 -247 0
-178 -248 0
-179 -249 0
-180 -250 0
-116 -436 0
-117 -437 0
-118 -438 0
-119 -439 0
-120 -440 0
-116 -156 0
-117 -157 0
-118 -158 0
-119 -159 0
-120 -160 0
-51 -211 0
-52 -212 0
-53 -213 0
-54 -214 0
-55 -215 0
-201 -466 0
-202 -467 0
-203 -468 0
-204 -469 0
-205 -470 0
-171 -226 0
-172 -227 0
-173 -228 0
-174 -229 0
-175 -230 0
-116 -246 0
-117 -247 0
-118 -248 0
-119 -249 0
-120 -250 0
-36 -231 0
-37 -232 0
-38 -233 0
-39 -234 0
-40 -235 0
-376 -451 0
-377 -452 0
-378 -453 0
-379 -454 0
-380 -455 0
-366 -421 0
-367 -422 0
-368 -423 0
-369 -424 0
-370 -425 0
-106 -191 0
-107 -192 0
-108 -193 0
-109 -194 0
-110 -195 0
-76 -231 0
-77 -232 0
-78 -233 0
-79 -234 0
-80 -235 0
-156 -196 0
-157 -197 0
-158 -198 0
-159 -199 0
-160 -200 0
-256 -311 0
-257 -312 0
-258 -313 0
-259 -314 0
-260 -315 0
-106 -281 0
-107 -282 0
-108 -283 0
-109 -284 0
-110 -285 0
-146 -356 0
-147 -357 0
-148 -358 0
-149 -359 0
-150 -360 0
-96 -171 0
-97 -172 0
-98 -173 0
-99 -174 0
-100 -175 0
-61 -171 0
-62 -172 0
-63 -173 0
-64 -174 0
-65 -175 0
-76 -126 0
-77 -127 0
-78 -128 0
-79 -129 0
-80 -130 0
-16 -336 0
-17 -337 0
-18 -338 0
-19 -339 0
-20 -340 0
-186 -386 0
-187 -387 0
-188 -388 0
-189 -389 0
-190 -390 0
-106 -241 0
-107 -242 0
-108 -243 0
-109 -244 0
-110 -245 0
-426 -481 0
-427 -482 0
-428 -483 0
-429 -484 0
-430 -485 0
-416 -451 0
-417 -452 0
-418 -453 0
-419 -454 0
-420 -455 0
-211 -316 0
-212 -317 0
-213 -318 0
-214 -319 0
-215 -320 0
